solution status: gap limit reached
objective value:                          39905.23413
y#1                                                 1 	(obj:5700)
y#10                                                1 	(obj:5700)
y#11                                                1 	(obj:5700)
y#12                                                1 	(obj:5700)
y#17                                                1 	(obj:5700)
y#18                                                1 	(obj:5700)
y#58                                                1 	(obj:5700)
x#1#1                                               1 	(obj:0.0323)
x#2#18                                              1 	(obj:0.00187)
x#3#58                                              1 	(obj:0.04369)
x#4#17                                              1 	(obj:0.06698)
x#5#10                                              1 	(obj:0.01598)
x#6#18                                              1 	(obj:0.06613)
x#7#11                                              1 	(obj:0.02822)
x#8#58                                              1 	(obj:0.03009)
x#9#58                                              1 	(obj:0.04471)
x#10#10                                             1 	(obj:0.02788)
x#11#10                                             1 	(obj:0.05151)
x#12#1                                              1 	(obj:0.17561)
x#13#18                                             1 	(obj:0.10982)
x#14#58                                             1 	(obj:0.02567)
x#15#17                                             1 	(obj:0.13345)
x#16#58                                             1 	(obj:0.03825)
x#17#10                                             1 	(obj:0.06545)
x#18#11                                             1 	(obj:0.17102)
x#19#11                                             1 	(obj:0.0136)
x#20#11                                             1 	(obj:0.02686)
x#21#11                                             1 	(obj:0.05695)
x#22#12                                             1 	(obj:0.04845)
x#23#12                                             1 	(obj:0.12529)
x#24#17                                             1 	(obj:0.03366)
x#25#1                                              1 	(obj:0.02142)
x#26#58                                             1 	(obj:0.04046)
x#27#1                                              1 	(obj:0.03893)
x#28#58                                             1 	(obj:0.04658)
x#29#10                                             1 	(obj:0.02312)
x#30#17                                             1 	(obj:0.04216)
x#31#10                                             1 	(obj:0.04845)
x#32#18                                             1 	(obj:0.05338)
x#33#1                                              1 	(obj:0.14314)
x#34#12                                             1 	(obj:0.09673)
x#35#12                                             1 	(obj:0.07548)
x#36#10                                             1 	(obj:0.09979)
x#37#18                                             1 	(obj:0.0816)
x#38#1                                              1 	(obj:0.02346)
x#39#1                                              1 	(obj:0.02941)
x#40#18                                             1 	(obj:0.06834)
x#41#58                                             1 	(obj:0.02414)
x#42#17                                             1 	(obj:0.06494)
x#43#1                                              1 	(obj:0.04811)
x#44#1                                              1 	(obj:0.03026)
x#45#18                                             1 	(obj:0.051)
x#46#10                                             1 	(obj:0.03757)
x#47#10                                             1 	(obj:0.02669)
x#48#11                                             1 	(obj:0.12597)
x#49#18                                             1 	(obj:0.03757)
x#50#58                                             1 	(obj:0.08364)
x#51#12                                             1 	(obj:0.13906)
x#52#12                                             1 	(obj:0.12189)
x#53#12                                             1 	(obj:0.15691)
x#54#10                                             1 	(obj:0.05185)
x#55#1                                              1 	(obj:0.03179)
x#56#58                                             1 	(obj:0.03145)
x#57#18                                             1 	(obj:0.03077)
x#58#12                                             1 	(obj:0.05729)
x#59#11                                             1 	(obj:0.12869)
x#60#17                                             1 	(obj:0.03927)
x#61#12                                             1 	(obj:0.17629)
x#62#11                                             1 	(obj:0.04148)
x#63#17                                             1 	(obj:0.02754)
x#64#58                                             1 	(obj:0.0476)
x#65#11                                             1 	(obj:0.04012)
x#66#17                                             1 	(obj:0.00986)
x#67#12                                             1 	(obj:0.13821)
x#68#17                                             1 	(obj:0.13226)
x#69#11                                             1 	(obj:0.03553)
x#70#17                                             1 	(obj:0.14484)
x#71#1                                              1 	(obj:0.13175)
x#72#12                                             1 	(obj:0.13532)
x#73#18                                             1 	(obj:0.0425)
x#74#10                                             1 	(obj:0.0306)
x#75#11                                             1 	(obj:0.02414)
x#76#11                                             1 	(obj:0.01955)
x#77#17                                             1 	(obj:0.11084)
x#78#1                                              1 	(obj:0.03927)
x#79#18                                             1 	(obj:0.10557)
x#80#12                                             1 	(obj:0.11611)
